c This is QMaxSAT 2017 based on 14.07
c This is Glucose 3.0
c This is MiniSat 2.2.0
c WARNING: for repeatability, setting FPU to use double precision
c card = mrwto, comp = 0, pmodel = 0, narr = 24, mct = 76, verb = 0
cr firstCPXsol 0 0 0
c top = 189219
c |  Number of variables:    19602                                            |
c |  Number of clauses:      1614423                                          |
c |  Weight of hard clauses: 189219                                           |
c |  Number of soft clauses: 219600                                           |
c |  Number of unit soft clauses: 0                                           |
c |  Maximum Cardinality (by unit): 7153296      (0           )               |
c last restart ## conflicts  :  46 5928 
o 647 | cpuTime 1.52447 s
c Sum of weights = 298054
c A number of soft clauses remained = 9150
c MRWTO encoding for Pseudo-Boolean Constraints
c sizeMax=647
c No.0 Divisor=9	generated by pow1
c No.1 Divisor=9	generated by pow1
c No.2 Divisor=9	generated by pow1
c p0= 9	p1= 9	p2= 9	
c number of digits = 4
c linkingVar[0].size = 9, linkingVar[1].size = 9, linkingVar[2].size = 8, linkingVar[3].size = 1, 
c Pseudo-Boolean Constraints: 156274 variables and 1144279 clauses
c Sum of weights = 298054
c A number of soft clauses remained = 9150
c MRWTO encoding for Pseudo-Boolean Constraints
c sizeMax=647
c No.0 Divisor=9	generated by pow1
c No.1 Divisor=9	generated by pow1
c No.2 Divisor=9	generated by pow1
c p0= 9	p1= 9	p2= 9	
c number of digits = 4
c linkingVar[0].size = 9, linkingVar[1].size = 9, linkingVar[2].size = 8, linkingVar[3].size = 1, 
c Pseudo-Boolean Constraints: 156274 variables and 1144279 clauses
c Sum of weights = 298054
c A number of soft clauses remained = 9150
c MRWTO encoding for Pseudo-Boolean Constraints
c sizeMax=647
c No.0 Divisor=9	generated by pow1
c No.1 Divisor=9	generated by pow1
c No.2 Divisor=9	generated by pow1
c p0= 9	p1= 9	p2= 9	
c number of digits = 4
c linkingVar[0].size = 9, linkingVar[1].size = 9, linkingVar[2].size = 8, linkingVar[3].size = 1, 
c Pseudo-Boolean Constraints: 156274 variables and 1144279 clauses
c Sum of weights = 298054
c A number of soft clauses remained = 9150
c MRWTO encoding for Pseudo-Boolean Constraints
c sizeMax=647
c No.0 Divisor=9	generated by pow1
c No.1 Divisor=9	generated by pow1
c No.2 Divisor=9	generated by pow1
c p0= 9	p1= 9	p2= 9	
c number of digits = 4
c linkingVar[0].size = 9, linkingVar[1].size = 9, linkingVar[2].size = 8, linkingVar[3].size = 1, 
c Pseudo-Boolean Constraints: 156274 variables and 1144279 clauses
c Sum of weights = 298054
c A number of soft clauses remained = 9150
c MRWTO encoding for Pseudo-Boolean Constraints
c sizeMax=647
c No.0 Divisor=9	generated by pow1
c No.1 Divisor=9	generated by pow1
c No.2 Divisor=9	generated by pow1
c p0= 9	p1= 9	p2= 9	
c number of digits = 4
c linkingVar[0].size = 9, linkingVar[1].size = 9, linkingVar[2].size = 8, linkingVar[3].size = 1, 
c Pseudo-Boolean Constraints: 156274 variables and 1144279 clauses
c Sum of weights = 298054
c A number of soft clauses remained = 9150
c MRWTO encoding for Pseudo-Boolean Constraints
c sizeMax=647
c No.0 Divisor=9	generated by pow1
c No.1 Divisor=9	generated by pow1
c No.2 Divisor=9	generated by pow1
c p0= 9	p1= 9	p2= 9	
c number of digits = 4
c linkingVar[0].size = 9, linkingVar[1].size = 9, linkingVar[2].size = 8, linkingVar[3].size = 1, 
c Pseudo-Boolean Constraints: 156274 variables and 1144279 clauses
c Sum of weights = 298054
c A number of soft clauses remained = 9150
c MRWTO encoding for Pseudo-Boolean Constraints
c sizeMax=647
c No.0 Divisor=9	generated by pow1
c No.1 Divisor=9	generated by pow1
c No.2 Divisor=9	generated by pow1
c p0= 9	p1= 9	p2= 9	
c number of digits = 4
c linkingVar[0].size = 9, linkingVar[1].size = 9, linkingVar[2].size = 8, linkingVar[3].size = 1, 
c Pseudo-Boolean Constraints: 156274 variables and 1144279 clauses
c Sum of weights = 298054
c A number of soft clauses remained = 9150
c MRWTO encoding for Pseudo-Boolean Constraints
c sizeMax=647
c No.0 Divisor=9	generated by pow1
c No.1 Divisor=9	generated by pow1
c No.2 Divisor=9	generated by pow1
c p0= 9	p1= 9	p2= 9	
c number of digits = 4
c linkingVar[0].size = 9, linkingVar[1].size = 9, linkingVar[2].size = 8, linkingVar[3].size = 1, 
c Pseudo-Boolean Constraints: 156274 variables and 1144279 clauses
c Sum of weights = 298054
c A number of soft clauses remained = 9150
c MRWTO encoding for Pseudo-Boolean Constraints
c sizeMax=647
c No.0 Divisor=9	generated by pow1
c No.1 Divisor=9	generated by pow1
c No.2 Divisor=9	generated by pow1
c p0= 9	p1= 9	p2= 9	
c number of digits = 4
c linkingVar[0].size = 9, linkingVar[1].size = 9, linkingVar[2].size = 8, linkingVar[3].size = 1, 
c Pseudo-Boolean Constraints: 156274 variables and 1144279 clauses
c Sum of weights = 298054
c A number of soft clauses remained = 9150
c MRWTO encoding for Pseudo-Boolean Constraints
c sizeMax=647
c No.0 Divisor=9	generated by pow1
c No.1 Divisor=9	generated by pow1
c No.2 Divisor=9	generated by pow1
c p0= 9	p1= 9	p2= 9	
c number of digits = 4
c linkingVar[0].size = 9, linkingVar[1].size = 9, linkingVar[2].size = 8, linkingVar[3].size = 1, 
c Pseudo-Boolean Constraints: 156274 variables and 1144279 clauses
c Sum of weights = 298054
c A number of soft clauses remained = 9150
c MRWTO encoding for Pseudo-Boolean Constraints
c sizeMax=647
c No.0 Divisor=9	generated by pow1
c No.1 Divisor=9	generated by pow1
c No.2 Divisor=9	generated by pow1
c p0= 9	p1= 9	p2= 9	
c number of digits = 4
c linkingVar[0].size = 9, linkingVar[1].size = 9, linkingVar[2].size = 8, linkingVar[3].size = 1, 
c Pseudo-Boolean Constraints: 156274 variables and 1144279 clauses
c Sum of weights = 298054
c A number of soft clauses remained = 9150
c MRWTO encoding for Pseudo-Boolean Constraints
c sizeMax=647
c No.0 Divisor=9	generated by pow1
c No.1 Divisor=9	generated by pow1
c No.2 Divisor=9	generated by pow1
c p0= 9	p1= 9	p2= 9	
c number of digits = 4
c linkingVar[0].size = 9, linkingVar[1].size = 9, linkingVar[2].size = 8, linkingVar[3].size = 1, 
c Pseudo-Boolean Constraints: 156274 variables and 1144279 clauses
c Sum of weights = 298054
c A number of soft clauses remained = 9150
c MRWTO encoding for Pseudo-Boolean Constraints
c sizeMax=647
c No.0 Divisor=9	generated by pow1
c No.1 Divisor=9	generated by pow1
c No.2 Divisor=9	generated by pow1
c p0= 9	p1= 9	p2= 9	
c number of digits = 4
c linkingVar[0].size = 9, linkingVar[1].size = 9, linkingVar[2].size = 8, linkingVar[3].size = 1, 
c Pseudo-Boolean Constraints: 156274 variables and 1144279 clauses
c Sum of weights = 298054
c A number of soft clauses remained = 9150
c MRWTO encoding for Pseudo-Boolean Constraints
c sizeMax=647
c No.0 Divisor=9	generated by pow1
c No.1 Divisor=9	generated by pow1
c No.2 Divisor=9	generated by pow1
c p0= 9	p1= 9	p2= 9	
c number of digits = 4
c linkingVar[0].size = 9, linkingVar[1].size = 9, linkingVar[2].size = 8, linkingVar[3].size = 1, 
c Pseudo-Boolean Constraints: 156274 variables and 1144279 clauses
c Sum of weights = 298054
c A number of soft clauses remained = 9150
c MRWTO encoding for Pseudo-Boolean Constraints
c sizeMax=647
c No.0 Divisor=9	generated by pow1
c No.1 Divisor=9	generated by pow1
c No.2 Divisor=9	generated by pow1
c p0= 9	p1= 9	p2= 9	
c number of digits = 4
c linkingVar[0].size = 9, linkingVar[1].size = 9, linkingVar[2].size = 8, linkingVar[3].size = 1, 
c Pseudo-Boolean Constraints: 156274 variables and 1144279 clauses
c Sum of weights = 298054
c A number of soft clauses remained = 9150
c MRWTO encoding for Pseudo-Boolean Constraints
c sizeMax=647
c No.0 Divisor=9	generated by pow1
c No.1 Divisor=9	generated by pow1
c No.2 Divisor=9	generated by pow1
c p0= 9	p1= 9	p2= 9	
c number of digits = 4
c linkingVar[0].size = 9, linkingVar[1].size = 9, linkingVar[2].size = 8, linkingVar[3].size = 1, 
c Pseudo-Boolean Constraints: 156274 variables and 1144279 clauses
c Sum of weights = 298054
c A number of soft clauses remained = 9150
c MRWTO encoding for Pseudo-Boolean Constraints
c sizeMax=647
c No.0 Divisor=9	generated by pow1
c No.1 Divisor=9	generated by pow1
c No.2 Divisor=9	generated by pow1
c p0= 9	p1= 9	p2= 9	
c number of digits = 4
c linkingVar[0].size = 9, linkingVar[1].size = 9, linkingVar[2].size = 8, linkingVar[3].size = 1, 
c Pseudo-Boolean Constraints: 156274 variables and 1144279 clauses
c Sum of weights = 298054
c A number of soft clauses remained = 9150
c MRWTO encoding for Pseudo-Boolean Constraints
c sizeMax=647
c No.0 Divisor=9	generated by pow1
c No.1 Divisor=9	generated by pow1
c No.2 Divisor=9	generated by pow1
c p0= 9	p1= 9	p2= 9	
c number of digits = 4
c linkingVar[0].size = 9, linkingVar[1].size = 9, linkingVar[2].size = 8, linkingVar[3].size = 1, 
c Pseudo-Boolean Constraints: 156274 variables and 1144279 clauses
c Sum of weights = 298054
c A number of soft clauses remained = 9150
c MRWTO encoding for Pseudo-Boolean Constraints
c sizeMax=647
c No.0 Divisor=9	generated by pow1
c No.1 Divisor=9	generated by pow1
c No.2 Divisor=9	generated by pow1
c p0= 9	p1= 9	p2= 9	
c number of digits = 4
c linkingVar[0].size = 9, linkingVar[1].size = 9, linkingVar[2].size = 8, linkingVar[3].size = 1, 
c Pseudo-Boolean Constraints: 156274 variables and 1144279 clauses
c Sum of weights = 298054
c A number of soft clauses remained = 9150
c MRWTO encoding for Pseudo-Boolean Constraints
c sizeMax=647
c No.0 Divisor=9	generated by pow1
c No.1 Divisor=9	generated by pow1
c No.2 Divisor=9	generated by pow1
c p0= 9	p1= 9	p2= 9	
c number of digits = 4
c linkingVar[0].size = 9, linkingVar[1].size = 9, linkingVar[2].size = 8, linkingVar[3].size = 1, 
c Pseudo-Boolean Constraints: 156274 variables and 1144279 clauses
c Sum of weights = 298054
c A number of soft clauses remained = 9150
c MRWTO encoding for Pseudo-Boolean Constraints
c sizeMax=647
c No.0 Divisor=9	generated by pow1
c No.1 Divisor=9	generated by pow1
c No.2 Divisor=9	generated by pow1
c p0= 9	p1= 9	p2= 9	
c number of digits = 4
c linkingVar[0].size = 9, linkingVar[1].size = 9, linkingVar[2].size = 8, linkingVar[3].size = 1, 
c Pseudo-Boolean Constraints: 156274 variables and 1144279 clauses
c Sum of weights = 298054
c A number of soft clauses remained = 9150
c MRWTO encoding for Pseudo-Boolean Constraints
c sizeMax=647
c No.0 Divisor=9	generated by pow1
c No.1 Divisor=9	generated by pow1
c No.2 Divisor=9	generated by pow1
c p0= 9	p1= 9	p2= 9	
c number of digits = 4
c linkingVar[0].size = 9, linkingVar[1].size = 9, linkingVar[2].size = 8, linkingVar[3].size = 1, 
c Pseudo-Boolean Constraints: 156274 variables and 1144279 clauses
c Sum of weights = 298054
c A number of soft clauses remained = 9150
c MRWTO encoding for Pseudo-Boolean Constraints
c sizeMax=647
c No.0 Divisor=9	generated by pow1
c No.1 Divisor=9	generated by pow1
c No.2 Divisor=9	generated by pow1
c p0= 9	p1= 9	p2= 9	
c number of digits = 4
c linkingVar[0].size = 9, linkingVar[1].size = 9, linkingVar[2].size = 8, linkingVar[3].size = 1, 
c Pseudo-Boolean Constraints: 156274 variables and 1144279 clauses
c Sum of weights = 298054
c A number of soft clauses remained = 9150
c MRWTO encoding for Pseudo-Boolean Constraints
c sizeMax=647
c No.0 Divisor=9	generated by pow1
c No.1 Divisor=9	generated by pow1
c No.2 Divisor=9	generated by pow1
c p0= 9	p1= 9	p2= 9	
c number of digits = 4
c linkingVar[0].size = 9, linkingVar[1].size = 9, linkingVar[2].size = 8, linkingVar[3].size = 1, 
c Pseudo-Boolean Constraints: 156274 variables and 1144279 clauses
c last restart ## conflicts  :  229 38614 
o 371 | cpuTime 9.63498 s
c last restart ## conflicts  :  617 32351 
o 304 | cpuTime 22.7982 s
c last restart ## conflicts  :  176 26616 
o 235 | cpuTime 38.1985 s
c last restart ## conflicts  :  422 30579 
o 230 | cpuTime 83.8504 s
c last restart ## conflicts  :  427 76368 
o 215 | cpuTime 169.433 s
c last restart ## conflicts  :  226 58950 
o 204 | cpuTime 925.033 s
c last restart ## conflicts  :  376 46261 
o 203 | cpuTime 1496.04 s
c last restart ## conflicts  :  397 39182 
o 196 | cpuTime 1906.34 s
s UNKNOWN
c Search is stopped by a limit (maybe time-limit)
cr positiVarArr: [ | 47(1->24) | 198(1->76) | 241(1->20) | 379(1->59) | 441(1->22) | 591(1->73) | 658(1->41) | 779(1->63) | 858(1->43) | 950(1->36) | 1034(1->21) | 1163(1->51) | 1220(1->9) | 1316(1->6) | 1484(1->75) | 1580(1->72) | 1663(1->56) | 1738(1->32) | 1808(1->3) | 1934(1->30) | 2050(1->47) | 2107(1->5) | 2232(1->31) | 2304(1->4) | 2399(2->1) | 2565(3->67) | 2667(4->70) | 2690(5->1) | 2844(6->49) | 2895(7->1) | 2971(8->1) | 3102(9->10) | 3228(10->37) | 3328(11->38) | 3444(12->55) | 3545(13->57) | 3626(14->39) | 3731(15->45) | 3772(16->1) | 3877(17->1) | 4051(18->68) | 4090(19->8) | 4197(20->16) | 4349(21->69) | 4407(22->28) | 4505(23->27) | 4602(24->25) | 4665(25->1) | 4790(26->15) | 4886(27->12) | 5047(28->74) | 5122(29->50) | 5190(30->19) | 5310(31->40) | 5355(32->1) | 5448(33->1) | 5557(34->1) | 5712(35->46) | 5826(36->61) | 5859(37->1) | 5945(38->1) | 6046(39->1) | 6144(40->1) | 6293(41->33) | 6344(42->1) | 6529(43->71) | 6571(44->14) | 6669(45->13) | 6762(46->7) | 6872(47->18) | 6952(48->1) | 7096(49->44) | 7213(50->62) | 7261(51->11) | 7347(52->1) | 7427(53->1) | 7605(54->58) | 7663(55->17) | 7768(56->23) | 7896(57->52) | 7934(58->1) | 8038(59->1) | 8194(60->53) | 8221(61->1) | 8381(62->42) | 8464(63->26) | 8534(64->1) | 8690(65->54) | 8723(66->1) | 8868(67->34) | 8935(68->2) | 9098(69->66) | 9191(70->60) | 9259(71->29) | 9393(72->64) | 9463(73->35) | 9592(74->65) | 9674(75->48) | 9717(76->1) | ]
cr the 1-th chain: [ 1->24->25->1 ] (#non-depot=2) {#cumul.=3}
cr the 2-th chain: [ 1->76->1 ] (#non-depot=1) {#cumul.=4}
cr the 3-th chain: [ 1->20->16->1 ] (#non-depot=2) {#cumul.=6}
cr the 4-th chain: [ 1->59->1 ] (#non-depot=1) {#cumul.=7}
cr the 5-th chain: [ 1->22->28->74->65->54->58->1 ] (#non-depot=6) {#cumul.=13}
cr the 6-th chain: [ 1->73->35->46->7->1 ] (#non-depot=4) {#cumul.=17}
cr the 7-th chain: [ 1->41->33->1 ] (#non-depot=2) {#cumul.=19}
cr the 8-th chain: [ 1->63->26->15->45->13->57->52->1 ] (#non-depot=7) {#cumul.=26}
cr the 9-th chain: [ 1->43->71->29->50->62->42->1 ] (#non-depot=6) {#cumul.=32}
cr the 10-th chain: [ 1->36->61->1 ] (#non-depot=2) {#cumul.=34}
cr the 11-th chain: [ 1->21->69->66->1 ] (#non-depot=3) {#cumul.=37}
cr the 12-th chain: [ 1->51->11->38->1 ] (#non-depot=3) {#cumul.=40}
cr the 13-th chain: [ 1->9->10->37->1 ] (#non-depot=3) {#cumul.=43}
cr the 14-th chain: [ 1->6->49->44->14->39->1 ] (#non-depot=5) {#cumul.=48}
cr the 15-th chain: [ 1->75->48->1 ] (#non-depot=2) {#cumul.=50}
cr the 16-th chain: [ 1->72->64->1 ] (#non-depot=2) {#cumul.=52}
cr the 17-th chain: [ 1->56->23->27->12->55->17->1 ] (#non-depot=6) {#cumul.=58}
cr the 18-th chain: [ 1->32->1 ] (#non-depot=1) {#cumul.=59}
cr the 19-th chain: [ 1->3->67->34->1 ] (#non-depot=3) {#cumul.=62}
cr the 20-th chain: [ 1->30->19->8->1 ] (#non-depot=3) {#cumul.=65}
cr the 21-th chain: [ 1->47->18->68->2->1 ] (#non-depot=4) {#cumul.=69}
cr the 22-th chain: [ 1->5->1 ] (#non-depot=1) {#cumul.=70}
cr the 23-th chain: [ 1->31->40->1 ] (#non-depot=2) {#cumul.=72}
cr the 24-th chain: [ 1->4->70->60->53->1 ] (#non-depot=4) {#cumul.=76}
c Latest Answer = 0 by 9 loops
c restarts              : 18398
c conflicts             : 2819664        (784 /sec)
c decisions             : 161875002      (0.00 % random) (45010 /sec)
c propagations          : 35041948492    (9743637 /sec)
c conflict literals     : 480603460      (29.80 % deleted)
c Memory used           : 3252.00 MB
c CPU time              : 3596.39 s
